

Minimize
20 x1 + 90 x2 + 80 x3 + 70 x4 + 30 x5
Subject To
x1 + x2 + x5 >= 30.5
x3 + x4 >= 30
3 x1 + 2 x3 <= 120
3 x2 + 2 x4 + x5 <= 48
Bounds
x1 >= 0
x2 >= 0
x3 >= 0
x4 >= 0
x5 >= 0
Integer x1 x2
End